Version identifier: 20.1.0.0 | 2020-11-10 | 9bedb6d68
Tried aggregator 2 times.
MIP Presolve eliminated 1276 rows and 695 columns.
MIP Presolve modified 2598 coefficients.
Aggregator did 145 substitutions.
Reduced MIP has 1135 rows, 967 columns, and 3615 nonzeros.
Reduced MIP has 306 binaries, 661 generals, 0 SOSs, and 0 indicators.
Presolve time = 0.02 sec. (5.71 ticks)
Found incumbent of value 33.000000 after 0.02 sec. (9.83 ticks)
Probing fixed 30 vars, tightened 245 bounds.
Probing time = 0.00 sec. (1.12 ticks)
Tried aggregator 2 times.
Detecting symmetries...
MIP Presolve eliminated 450 rows and 36 columns.
MIP Presolve modified 83 coefficients.
Aggregator did 4 substitutions.
Reduced MIP has 681 rows, 927 columns, and 2223 nonzeros.
Reduced MIP has 449 binaries, 478 generals, 0 SOSs, and 0 indicators.
Presolve time = 0.01 sec. (3.34 ticks)
Probing time = 0.00 sec. (0.22 ticks)
Clique table members: 61.
MIP emphasis: balance optimality and feasibility.
MIP search method: dynamic search.
Parallel mode: deterministic, using up to 24 threads.
Root relaxation solution time = 0.00 sec. (1.77 ticks)

        Nodes                                         Cuts/
   Node  Left     Objective  IInf  Best Integer    Best Bound    ItCnt     Gap

*     0+    0                           33.0000        0.0000           100.00%
      0     0        0.0000    53       33.0000        0.0000      168  100.00%
      0     0        0.3500   108       33.0000     Cuts: 194      444   98.94%
*     0+    0                           17.0000        0.3500            97.94%
      0     0        1.0833   244       17.0000     Cuts: 113      823   93.63%
      0     0        1.0833   345       17.0000      Cuts: 73      903   93.63%
      0     0        1.5143   270       17.0000      Cuts: 54     1046   91.09%
      0     0        1.5556   234       17.0000     Cuts: 107     1119   90.85%
      0     0        1.5556   306       17.0000      Cuts: 65     1178   90.85%
*     0+    0                           14.0000        1.5556            88.89%
*     0+    0                           12.0000        1.5556            87.04%
*     0+    0                            8.0000        1.5556            80.56%
      0     0        cutoff              8.0000        8.0000     1178    0.00%
Elapsed time = 0.23 sec. (121.94 ticks, tree = 0.01 MB, solutions = 5)

Cover cuts applied:  4
Implied bound cuts applied:  19
Flow cuts applied:  4
Mixed integer rounding cuts applied:  16
Zero-half cuts applied:  44
Lift and project cuts applied:  1
Gomory fractional cuts applied:  10

Root node processing (before b&c):
  Real time             =    0.23 sec. (122.05 ticks)
Parallel b&c, 24 threads:
  Real time             =    0.00 sec. (0.00 ticks)
  Sync time (average)   =    0.00 sec.
  Wait time (average)   =    0.00 sec.
                          ------------
Total (root+branch&cut) =    0.23 sec. (122.05 ticks)

Solution status = Optimal
Solution LB = 8
Solution UB = 8
Runtime = 0.244014 seconds
	Command being timed: "/home/min/git_repos/CS598MEBProject/CNT-ILP/build/cnt -s 2 ./output/k6_n30/simC_c1_k6_n30_u2_s2_del04.input-left.cnp"
	User time (seconds): 1.25
	System time (seconds): 0.07
	Percent of CPU this job got: 473%
	Elapsed (wall clock) time (h:mm:ss or m:ss): 0:00.28
	Average shared text size (kbytes): 0
	Average unshared data size (kbytes): 0
	Average stack size (kbytes): 0
	Average total size (kbytes): 0
	Maximum resident set size (kbytes): 80796
	Average resident set size (kbytes): 0
	Major (requiring I/O) page faults: 0
	Minor (reclaiming a frame) page faults: 17630
	Voluntary context switches: 4008
	Involuntary context switches: 145
	Swaps: 0
	File system inputs: 0
	File system outputs: 24
	Socket messages sent: 0
	Socket messages received: 0
	Signals delivered: 0
	Page size (bytes): 4096
	Exit status: 0
